Minimize
  - 20 y_0 - 14 y_1 - 4 y_2 - 29 y_3 - 10 y_4 - 32 y_5 - 22 y_6 - 22 y_7
   - 18 y_8 - 18 y_9 - 28 y_10 - 9 y_11 - 12 y_12 - 19 y_13 - 18 y_14
   - 19 y_15 - 21 y_16 - 24 y_17 - 17 y_18 - 30 y_19 - 28 y_20 - 25 y_21
   - 25 y_22 - 13 y_23 - 26 y_24 - 11 y_25 - 13 y_26 - 23 y_28 - 24 y_29
   - 24 y_30 - 22 y_31 - 29 y_32 - 12 y_33 - 20 y_34 - 19 y_35 - 14 y_36
   - 20 y_37 - 22 y_38 - 18 y_39 - 25 y_40 - 18 y_41 - 24 y_42 - 8 y_43
   - 34 y_44 - 15 y_45 - 10 y_46 - 17 y_47 - 20 y_48 - 8 y_49
   + 953 Constant
Subject To
 c_0: y_3 = 1
 c_1_0: y_0 >= 1
 c_1_1: y_1 >= 1
 c_1_2: y_2 >= 1
 c_1_3: y_3 >= 1
 c_1_4: y_4 + y_46 >= 1
 c_1_5: y_5 >= 1
 c_1_6: y_6 + y_42 >= 1
 c_1_7: y_7 + y_37 >= 1
 c_1_8: y_8 >= 1
 c_1_9: y_9 + y_18 >= 1
 c_1_10: y_10 >= 1
 c_1_11: y_11 >= 1
 c_1_12: y_12 + y_25 >= 1
 c_1_13: y_13 >= 1
 c_1_14: y_14 + y_48 >= 1
 c_1_15: y_15 >= 1
 c_1_16: y_16 >= 1
 c_1_17: y_17 >= 1
 c_1_18: y_9 + y_18 >= 1
 c_1_19: y_19 >= 1
 c_1_20: y_20 >= 1
 c_1_21: y_21 + y_24 >= 1
 c_1_22: y_22 >= 1
 c_1_23: y_23 >= 1
 c_1_24: y_21 + y_24 >= 1
 c_1_25: y_12 + y_25 >= 1
 c_1_26: y_26 >= 1
 c_1_27: y_27 >= 1
 c_1_28: y_28 >= 1
 c_1_29: y_29 >= 1
 c_1_30: y_30 >= 1
 c_1_31: y_31 >= 1
 c_1_32: y_32 >= 1
 c_1_33: y_33 >= 1
 c_1_34: y_34 >= 1
 c_1_35: y_35 >= 1
 c_1_36: y_36 >= 1
 c_1_37: y_7 + y_37 >= 1
 c_1_38: y_38 >= 1
 c_1_39: y_39 >= 1
 c_1_40: y_40 >= 1
 c_1_41: y_41 >= 1
 c_1_42: y_6 + y_42 >= 1
 c_1_43: y_43 >= 1
 c_1_44: y_44 >= 1
 c_1_45: y_45 >= 1
 c_1_46: y_4 + y_46 >= 1
 c_1_47: y_47 >= 1
 c_1_48: y_14 + y_48 >= 1
 c_1_49: y_49 >= 1
Bounds
 Constant = 1
Binaries
 y_0 y_1 y_2 y_3 y_4 y_5 y_6 y_7 y_8 y_9 y_10 y_11 y_12 y_13 y_14 y_15 y_16
 y_17 y_18 y_19 y_20 y_21 y_22 y_23 y_24 y_25 y_26 y_27 y_28 y_29 y_30 y_31
 y_32 y_33 y_34 y_35 y_36 y_37 y_38 y_39 y_40 y_41 y_42 y_43 y_44 y_45 y_46
 y_47 y_48 y_49
End
